737,51
749,273
613,273
307,216
561,406
653,415
681,376
593,392
533,-50
654,353
736,577
951,406
852,351
795,369
744,343
935,660
838,891
736,577
649,613
584,476
803,166
999,88
654,353
561,406
339,517
293,124
745,207
744,343
838,891
